[TITLE]
Anson County WTP Lower Lagoon (ANSON-057) -- piping breach at normal pool.
Froehlich (2008) breach routed level-pool by swmm-breach, applied as INFLOWS
at the dam toe (JN_Toe) and conveyed down a trapezoidal channel to a free
outfall. Peak breach outflow ~5,034 cfs (HEC-RAS 6.6 2D: 4,301 cfs).
Units: CFS / feet (NAVD88).

[OPTIONS]
FLOW_UNITS           CFS
INFILTRATION         HORTON
FLOW_ROUTING         DYNWAVE
LINK_OFFSETS         DEPTH
MIN_SLOPE            0
ALLOW_PONDING        NO
SKIP_STEADY_STATE    NO

START_DATE           06/05/2026
START_TIME           14:00:00
REPORT_START_DATE    06/05/2026
REPORT_START_TIME    14:00:00
END_DATE             06/05/2026
END_TIME             16:00:00
SWEEP_START          01/01
SWEEP_END            12/31
DRY_DAYS             0
REPORT_STEP          00:00:10
WET_STEP             00:00:10
DRY_STEP             00:05:00
ROUTING_STEP         0:00:02
RULE_STEP            00:00:00

INERTIAL_DAMPING     PARTIAL
NORMAL_FLOW_LIMITED  BOTH
FORCE_MAIN_EQUATION  H-W
VARIABLE_STEP        0.75
LENGTHENING_STEP     0
MIN_SURFAREA         12.566
MAX_TRIALS           8
HEAD_TOLERANCE       0.005
SYS_FLOW_TOL         5
LAT_FLOW_TOL         5

[EVAPORATION]
CONSTANT         0.0
DRY_ONLY         NO

[REPORT]
INPUT      NO
CONTROLS   NO
SUBCATCHMENTS ALL
NODES ALL
LINKS ALL

[JUNCTIONS]
;;Name           Elevation  MaxDepth   InitDepth  SurDepth   Aponded
;;-------------- ---------- ---------- ---------- ---------- ----------
JN_Toe           438.5      15.0       0.0        0.0        0.0
JN_2             437.0      15.0       0.0        0.0        0.0
JN_3             435.5      15.0       0.0        0.0        0.0

[OUTFALLS]
;;Name           Elevation  Type       Stage Data       Gated    Route To
;;-------------- ---------- ---------- ---------------- -------- ----------
OUT_1            434.0      FREE                        NO

[CONDUITS]
;;Name           From Node        To Node          Length     Roughness  InOffset   OutOffset  InitFlow   MaxFlow
;;-------------- ---------------- ---------------- ---------- ---------- ---------- ---------- ---------- ----------
C1               JN_Toe           JN_2             500        0.035      0          0          0          0
C2               JN_2             JN_3             500        0.035      0          0          0          0
C3               JN_3             OUT_1            500        0.035      0          0          0          0

[XSECTIONS]
;;Link           Shape        Geom1      Geom2      Geom3      Geom4      Barrels
;;-------------- ------------ ---------- ---------- ---------- ---------- ----------
C1               TRAPEZOIDAL  15.0       40.0       2.0        2.0        1
C2               TRAPEZOIDAL  15.0       40.0       2.0        2.0        1
C3               TRAPEZOIDAL  15.0       40.0       2.0        2.0        1

[TIMESERIES]
;;Name           Date       Time       Value
;;-------------- ---------- ---------- ----------
TS_AnsonBreach   06/05/2026 14:00:00  0.0000
TS_AnsonBreach   06/05/2026 14:00:10  0.1526
TS_AnsonBreach   06/05/2026 14:00:20  0.8629
TS_AnsonBreach   06/05/2026 14:00:30  2.3776
TS_AnsonBreach   06/05/2026 14:00:40  4.8796
TS_AnsonBreach   06/05/2026 14:00:50  8.5214
TS_AnsonBreach   06/05/2026 14:01:00  13.4359
TS_AnsonBreach   06/05/2026 14:01:10  19.7412
TS_AnsonBreach   06/05/2026 14:01:20  27.5443
TS_AnsonBreach   06/05/2026 14:01:30  36.9423
TS_AnsonBreach   06/05/2026 14:01:40  48.0238
TS_AnsonBreach   06/05/2026 14:01:50  60.8697
TS_AnsonBreach   06/05/2026 14:02:00  75.5540
TS_AnsonBreach   06/05/2026 14:02:10  92.1435
TS_AnsonBreach   06/05/2026 14:02:20  110.6988
TS_AnsonBreach   06/05/2026 14:02:30  131.2741
TS_AnsonBreach   06/05/2026 14:02:40  153.9173
TS_AnsonBreach   06/05/2026 14:02:50  178.6704
TS_AnsonBreach   06/05/2026 14:03:00  205.5689
TS_AnsonBreach   06/05/2026 14:03:10  234.6427
TS_AnsonBreach   06/05/2026 14:03:20  265.9156
TS_AnsonBreach   06/05/2026 14:03:30  299.4053
TS_AnsonBreach   06/05/2026 14:03:40  335.1236
TS_AnsonBreach   06/05/2026 14:03:50  373.0763
TS_AnsonBreach   06/05/2026 14:04:00  413.2636
TS_AnsonBreach   06/05/2026 14:04:10  455.6795
TS_AnsonBreach   06/05/2026 14:04:20  500.3124
TS_AnsonBreach   06/05/2026 14:04:30  547.1449
TS_AnsonBreach   06/05/2026 14:04:40  596.1542
TS_AnsonBreach   06/05/2026 14:04:50  647.3115
TS_AnsonBreach   06/05/2026 14:05:00  700.5831
TS_AnsonBreach   06/05/2026 14:05:10  755.9297
TS_AnsonBreach   06/05/2026 14:05:20  813.3069
TS_AnsonBreach   06/05/2026 14:05:30  872.6655
TS_AnsonBreach   06/05/2026 14:05:40  933.9512
TS_AnsonBreach   06/05/2026 14:05:50  997.1055
TS_AnsonBreach   06/05/2026 14:06:00  1062.0653
TS_AnsonBreach   06/05/2026 14:06:10  1128.7633
TS_AnsonBreach   06/05/2026 14:06:20  1197.1284
TS_AnsonBreach   06/05/2026 14:06:30  1267.0859
TS_AnsonBreach   06/05/2026 14:06:40  1338.5575
TS_AnsonBreach   06/05/2026 14:06:50  1411.4621
TS_AnsonBreach   06/05/2026 14:07:00  1485.7155
TS_AnsonBreach   06/05/2026 14:07:10  1561.2311
TS_AnsonBreach   06/05/2026 14:07:20  1637.9200
TS_AnsonBreach   06/05/2026 14:07:30  1715.6914
TS_AnsonBreach   06/05/2026 14:07:40  1794.4529
TS_AnsonBreach   06/05/2026 14:07:50  1874.1106
TS_AnsonBreach   06/05/2026 14:08:00  1954.5697
TS_AnsonBreach   06/05/2026 14:08:10  2035.7347
TS_AnsonBreach   06/05/2026 14:08:20  2117.5097
TS_AnsonBreach   06/05/2026 14:08:30  2199.7984
TS_AnsonBreach   06/05/2026 14:08:40  2282.5051
TS_AnsonBreach   06/05/2026 14:08:50  2365.5341
TS_AnsonBreach   06/05/2026 14:09:00  2448.7906
TS_AnsonBreach   06/05/2026 14:09:10  2532.1809
TS_AnsonBreach   06/05/2026 14:09:20  2615.6123
TS_AnsonBreach   06/05/2026 14:09:30  2698.9936
TS_AnsonBreach   06/05/2026 14:09:40  2782.2354
TS_AnsonBreach   06/05/2026 14:09:50  2865.2501
TS_AnsonBreach   06/05/2026 14:10:00  2947.9523
TS_AnsonBreach   06/05/2026 14:10:10  3030.2588
TS_AnsonBreach   06/05/2026 14:10:20  3112.0888
TS_AnsonBreach   06/05/2026 14:10:30  3193.3642
TS_AnsonBreach   06/05/2026 14:10:40  3274.0097
TS_AnsonBreach   06/05/2026 14:10:50  3353.9529
TS_AnsonBreach   06/05/2026 14:11:00  3433.1242
TS_AnsonBreach   06/05/2026 14:11:10  3511.4573
TS_AnsonBreach   06/05/2026 14:11:20  3588.8889
TS_AnsonBreach   06/05/2026 14:11:30  3665.3591
TS_AnsonBreach   06/05/2026 14:11:40  3740.8111
TS_AnsonBreach   06/05/2026 14:11:50  3815.1916
TS_AnsonBreach   06/05/2026 14:12:00  3888.4504
TS_AnsonBreach   06/05/2026 14:12:10  3960.5410
TS_AnsonBreach   06/05/2026 14:12:20  4031.4200
TS_AnsonBreach   06/05/2026 14:12:30  4101.0474
TS_AnsonBreach   06/05/2026 14:12:40  4169.3866
TS_AnsonBreach   06/05/2026 14:12:50  4236.4041
TS_AnsonBreach   06/05/2026 14:13:00  4302.0698
TS_AnsonBreach   06/05/2026 14:13:10  4366.3569
TS_AnsonBreach   06/05/2026 14:13:20  4429.2414
TS_AnsonBreach   06/05/2026 14:13:30  4490.7026
TS_AnsonBreach   06/05/2026 14:13:40  4550.7227
TS_AnsonBreach   06/05/2026 14:13:50  4609.2869
TS_AnsonBreach   06/05/2026 14:14:00  4666.3831
TS_AnsonBreach   06/05/2026 14:14:10  4722.0020
TS_AnsonBreach   06/05/2026 14:14:20  4776.1368
TS_AnsonBreach   06/05/2026 14:14:30  4828.7835
TS_AnsonBreach   06/05/2026 14:14:40  4879.9402
TS_AnsonBreach   06/05/2026 14:14:50  4929.6076
TS_AnsonBreach   06/05/2026 14:15:00  4977.7885
TS_AnsonBreach   06/05/2026 14:15:10  5024.4878
TS_AnsonBreach   06/05/2026 14:15:20  4918.7243
TS_AnsonBreach   06/05/2026 14:15:30  4771.0898
TS_AnsonBreach   06/05/2026 14:15:40  4629.6582
TS_AnsonBreach   06/05/2026 14:15:50  4494.0917
TS_AnsonBreach   06/05/2026 14:16:00  4364.0750
TS_AnsonBreach   06/05/2026 14:16:10  4239.3137
TS_AnsonBreach   06/05/2026 14:16:20  4119.5326
TS_AnsonBreach   06/05/2026 14:16:30  4004.4743
TS_AnsonBreach   06/05/2026 14:16:40  3893.8978
TS_AnsonBreach   06/05/2026 14:16:50  3787.5772
TS_AnsonBreach   06/05/2026 14:17:00  3685.3006
TS_AnsonBreach   06/05/2026 14:17:10  3586.8691
TS_AnsonBreach   06/05/2026 14:17:20  3492.0958
TS_AnsonBreach   06/05/2026 14:17:30  3400.8050
TS_AnsonBreach   06/05/2026 14:17:40  2948.5483
TS_AnsonBreach   06/05/2026 14:17:50  2557.1233
TS_AnsonBreach   06/05/2026 14:18:00  2234.7445
TS_AnsonBreach   06/05/2026 14:18:10  1966.3637
TS_AnsonBreach   06/05/2026 14:18:20  1740.7980
TS_AnsonBreach   06/05/2026 14:18:30  1549.5971
TS_AnsonBreach   06/05/2026 14:18:40  1386.2811
TS_AnsonBreach   06/05/2026 14:18:50  1245.8146
TS_AnsonBreach   06/05/2026 14:19:00  1124.2384
TS_AnsonBreach   06/05/2026 14:19:10  1018.4054
TS_AnsonBreach   06/05/2026 14:19:20  925.7898
TS_AnsonBreach   06/05/2026 14:19:30  844.3459
TS_AnsonBreach   06/05/2026 14:19:40  772.4037
TS_AnsonBreach   06/05/2026 14:19:50  708.5893
TS_AnsonBreach   06/05/2026 14:20:00  651.7643
TS_AnsonBreach   06/05/2026 14:20:10  600.9799
TS_AnsonBreach   06/05/2026 14:20:20  555.4400
TS_AnsonBreach   06/05/2026 14:20:30  514.4731
TS_AnsonBreach   06/05/2026 14:20:40  477.5100
TS_AnsonBreach   06/05/2026 14:20:50  444.0654
TS_AnsonBreach   06/05/2026 14:21:00  413.7241
TS_AnsonBreach   06/05/2026 14:21:10  386.1290
TS_AnsonBreach   06/05/2026 14:21:20  360.9719
TS_AnsonBreach   06/05/2026 14:21:30  337.9858
TS_AnsonBreach   06/05/2026 14:21:40  316.9383
TS_AnsonBreach   06/05/2026 14:21:50  297.6267
TS_AnsonBreach   06/05/2026 14:22:00  279.8734
TS_AnsonBreach   06/05/2026 14:22:10  263.5225
TS_AnsonBreach   06/05/2026 14:22:20  248.4366
TS_AnsonBreach   06/05/2026 14:22:30  234.4943
TS_AnsonBreach   06/05/2026 14:22:40  221.5880
TS_AnsonBreach   06/05/2026 14:22:50  209.6224
TS_AnsonBreach   06/05/2026 14:23:00  198.5124
TS_AnsonBreach   06/05/2026 14:23:10  188.1821
TS_AnsonBreach   06/05/2026 14:23:20  178.5635
TS_AnsonBreach   06/05/2026 14:23:30  169.5960
TS_AnsonBreach   06/05/2026 14:23:40  161.2248
TS_AnsonBreach   06/05/2026 14:23:50  153.4007
TS_AnsonBreach   06/05/2026 14:24:00  146.0794
TS_AnsonBreach   06/05/2026 14:24:10  139.2207
TS_AnsonBreach   06/05/2026 14:24:20  132.7885
TS_AnsonBreach   06/05/2026 14:24:30  126.7498
TS_AnsonBreach   06/05/2026 14:24:40  121.0748
TS_AnsonBreach   06/05/2026 14:24:50  115.7362
TS_AnsonBreach   06/05/2026 14:25:00  110.7093
TS_AnsonBreach   06/05/2026 14:25:10  105.9716
TS_AnsonBreach   06/05/2026 14:25:20  101.5024
TS_AnsonBreach   06/05/2026 14:25:30  97.2828
TS_AnsonBreach   06/05/2026 14:25:40  93.2955
TS_AnsonBreach   06/05/2026 14:25:50  89.5246
TS_AnsonBreach   06/05/2026 14:26:00  85.9556
TS_AnsonBreach   06/05/2026 14:26:10  82.5751
TS_AnsonBreach   06/05/2026 14:26:20  79.3706
TS_AnsonBreach   06/05/2026 14:26:30  76.3308
TS_AnsonBreach   06/05/2026 14:26:40  73.4453
TS_AnsonBreach   06/05/2026 14:26:50  70.7042
TS_AnsonBreach   06/05/2026 14:27:00  68.0987
TS_AnsonBreach   06/05/2026 14:27:10  65.6203
TS_AnsonBreach   06/05/2026 14:27:20  63.2615
TS_AnsonBreach   06/05/2026 14:27:30  61.0149
TS_AnsonBreach   06/05/2026 14:27:40  58.8741
TS_AnsonBreach   06/05/2026 14:27:50  56.8327
TS_AnsonBreach   06/05/2026 14:28:00  54.8852
TS_AnsonBreach   06/05/2026 14:28:10  53.0260
TS_AnsonBreach   06/05/2026 14:28:20  51.2503
TS_AnsonBreach   06/05/2026 14:28:30  49.5534
TS_AnsonBreach   06/05/2026 14:28:40  47.9309
TS_AnsonBreach   06/05/2026 14:28:50  46.3789
TS_AnsonBreach   06/05/2026 14:29:00  44.8934
TS_AnsonBreach   06/05/2026 14:29:10  43.4710
TS_AnsonBreach   06/05/2026 14:29:20  42.1083
TS_AnsonBreach   06/05/2026 14:29:30  40.8022
TS_AnsonBreach   06/05/2026 14:29:40  39.5498
TS_AnsonBreach   06/05/2026 14:29:50  38.3483
TS_AnsonBreach   06/05/2026 14:30:00  37.1952
TS_AnsonBreach   06/05/2026 14:30:10  36.0881
TS_AnsonBreach   06/05/2026 14:30:20  35.0246
TS_AnsonBreach   06/05/2026 14:30:30  34.0027
TS_AnsonBreach   06/05/2026 14:30:40  33.0203
TS_AnsonBreach   06/05/2026 14:30:50  32.0755
TS_AnsonBreach   06/05/2026 14:31:00  31.1666
TS_AnsonBreach   06/05/2026 14:31:10  30.2918
TS_AnsonBreach   06/05/2026 14:31:20  29.4496
TS_AnsonBreach   06/05/2026 14:31:30  28.6384
TS_AnsonBreach   06/05/2026 14:31:40  27.8568
TS_AnsonBreach   06/05/2026 14:31:50  27.1035
TS_AnsonBreach   06/05/2026 14:32:00  26.3772
TS_AnsonBreach   06/05/2026 14:32:10  25.6767
TS_AnsonBreach   06/05/2026 14:32:20  25.0009
TS_AnsonBreach   06/05/2026 14:32:30  24.3487
TS_AnsonBreach   06/05/2026 14:32:40  23.7190
TS_AnsonBreach   06/05/2026 14:32:50  23.1109
TS_AnsonBreach   06/05/2026 14:33:00  22.5235
TS_AnsonBreach   06/05/2026 14:33:10  21.9559
TS_AnsonBreach   06/05/2026 14:33:20  21.4073
TS_AnsonBreach   06/05/2026 14:33:30  20.8768
TS_AnsonBreach   06/05/2026 14:33:40  20.3638
TS_AnsonBreach   06/05/2026 14:33:50  19.8675
TS_AnsonBreach   06/05/2026 14:34:00  19.3872
TS_AnsonBreach   06/05/2026 14:34:10  18.9223
TS_AnsonBreach   06/05/2026 14:34:20  18.4723
TS_AnsonBreach   06/05/2026 14:34:30  18.0364
TS_AnsonBreach   06/05/2026 14:34:40  17.6141
TS_AnsonBreach   06/05/2026 14:34:50  17.2050
TS_AnsonBreach   06/05/2026 14:35:00  16.8085
TS_AnsonBreach   06/05/2026 14:35:10  16.4241
TS_AnsonBreach   06/05/2026 14:35:20  16.0513
TS_AnsonBreach   06/05/2026 14:35:30  15.6898
TS_AnsonBreach   06/05/2026 14:35:40  15.3391
TS_AnsonBreach   06/05/2026 14:35:50  14.9988
TS_AnsonBreach   06/05/2026 14:36:00  14.6685
TS_AnsonBreach   06/05/2026 14:36:10  14.3478
TS_AnsonBreach   06/05/2026 14:36:20  14.0365
TS_AnsonBreach   06/05/2026 14:36:30  13.7341
TS_AnsonBreach   06/05/2026 14:36:40  13.4404
TS_AnsonBreach   06/05/2026 14:36:50  13.1550
TS_AnsonBreach   06/05/2026 14:37:00  12.8776
TS_AnsonBreach   06/05/2026 14:37:10  12.6080
TS_AnsonBreach   06/05/2026 14:37:20  12.3459
TS_AnsonBreach   06/05/2026 14:37:30  12.0910
TS_AnsonBreach   06/05/2026 14:37:40  11.8431
TS_AnsonBreach   06/05/2026 14:37:50  11.6019
TS_AnsonBreach   06/05/2026 14:38:00  11.3673
TS_AnsonBreach   06/05/2026 14:38:10  11.1389
TS_AnsonBreach   06/05/2026 14:38:20  10.9167
TS_AnsonBreach   06/05/2026 14:38:30  10.7003
TS_AnsonBreach   06/05/2026 14:38:40  10.4896
TS_AnsonBreach   06/05/2026 14:38:50  10.2845
TS_AnsonBreach   06/05/2026 14:39:00  10.0846
TS_AnsonBreach   06/05/2026 14:39:10  9.8899
TS_AnsonBreach   06/05/2026 14:39:20  9.7002
TS_AnsonBreach   06/05/2026 14:39:30  9.5154
TS_AnsonBreach   06/05/2026 14:39:40  9.3352
TS_AnsonBreach   06/05/2026 14:39:50  9.1595
TS_AnsonBreach   06/05/2026 14:40:00  8.9882
TS_AnsonBreach   06/05/2026 14:40:10  8.8212
TS_AnsonBreach   06/05/2026 14:40:20  8.6583
TS_AnsonBreach   06/05/2026 14:40:30  8.4994
TS_AnsonBreach   06/05/2026 14:40:40  8.3443
TS_AnsonBreach   06/05/2026 14:40:50  8.1930
TS_AnsonBreach   06/05/2026 14:41:00  8.0454
TS_AnsonBreach   06/05/2026 14:41:10  7.9013
TS_AnsonBreach   06/05/2026 14:41:20  7.7606
TS_AnsonBreach   06/05/2026 14:41:30  7.6232
TS_AnsonBreach   06/05/2026 14:41:40  7.4891
TS_AnsonBreach   06/05/2026 14:41:50  7.3581
TS_AnsonBreach   06/05/2026 14:42:00  7.2301
TS_AnsonBreach   06/05/2026 14:42:10  7.1051
TS_AnsonBreach   06/05/2026 14:42:20  6.9830
TS_AnsonBreach   06/05/2026 14:42:30  6.8636
TS_AnsonBreach   06/05/2026 14:42:40  6.7470
TS_AnsonBreach   06/05/2026 14:42:50  6.6330
TS_AnsonBreach   06/05/2026 14:43:00  6.5215
TS_AnsonBreach   06/05/2026 14:43:10  6.4126
TS_AnsonBreach   06/05/2026 14:43:20  6.3060
TS_AnsonBreach   06/05/2026 14:43:30  6.2018
TS_AnsonBreach   06/05/2026 14:43:40  6.0999
TS_AnsonBreach   06/05/2026 14:43:50  6.0003
TS_AnsonBreach   06/05/2026 14:44:00  5.9027
TS_AnsonBreach   06/05/2026 14:44:10  5.8073
TS_AnsonBreach   06/05/2026 14:44:20  5.7140
TS_AnsonBreach   06/05/2026 14:44:30  5.6226
TS_AnsonBreach   06/05/2026 14:44:40  5.5331
TS_AnsonBreach   06/05/2026 14:44:50  5.4456
TS_AnsonBreach   06/05/2026 14:45:00  5.3599
TS_AnsonBreach   06/05/2026 14:45:10  5.2760
TS_AnsonBreach   06/05/2026 14:45:20  5.1938
TS_AnsonBreach   06/05/2026 14:45:30  5.1133
TS_AnsonBreach   06/05/2026 14:45:40  5.0345
TS_AnsonBreach   06/05/2026 14:45:50  4.9573
TS_AnsonBreach   06/05/2026 14:46:00  4.8817
TS_AnsonBreach   06/05/2026 14:46:10  4.8076
TS_AnsonBreach   06/05/2026 14:46:20  4.7350
TS_AnsonBreach   06/05/2026 14:46:30  4.6639
TS_AnsonBreach   06/05/2026 14:46:40  4.5941
TS_AnsonBreach   06/05/2026 14:46:50  4.5258
TS_AnsonBreach   06/05/2026 14:47:00  4.4588
TS_AnsonBreach   06/05/2026 14:47:10  4.3931
TS_AnsonBreach   06/05/2026 14:47:20  4.3288
TS_AnsonBreach   06/05/2026 14:47:30  4.2656
TS_AnsonBreach   06/05/2026 14:47:40  4.2037
TS_AnsonBreach   06/05/2026 14:47:50  4.1430
TS_AnsonBreach   06/05/2026 14:48:00  4.0834
TS_AnsonBreach   06/05/2026 14:48:10  4.0250
TS_AnsonBreach   06/05/2026 14:48:20  3.9677
TS_AnsonBreach   06/05/2026 14:48:30  3.9115
TS_AnsonBreach   06/05/2026 14:48:40  3.8563
TS_AnsonBreach   06/05/2026 14:48:50  3.8022
TS_AnsonBreach   06/05/2026 14:49:00  3.7491
TS_AnsonBreach   06/05/2026 14:49:10  3.6970
TS_AnsonBreach   06/05/2026 14:49:20  3.6458
TS_AnsonBreach   06/05/2026 14:49:30  3.5956
TS_AnsonBreach   06/05/2026 14:49:40  3.5462
TS_AnsonBreach   06/05/2026 14:49:50  3.4978
TS_AnsonBreach   06/05/2026 14:50:00  3.4503
TS_AnsonBreach   06/05/2026 14:50:10  3.4036
TS_AnsonBreach   06/05/2026 14:50:20  3.3578
TS_AnsonBreach   06/05/2026 14:50:30  3.3128
TS_AnsonBreach   06/05/2026 14:50:40  3.2686
TS_AnsonBreach   06/05/2026 14:50:50  3.2251
TS_AnsonBreach   06/05/2026 14:51:00  3.1825
TS_AnsonBreach   06/05/2026 14:51:10  3.1405
TS_AnsonBreach   06/05/2026 14:51:20  3.0994
TS_AnsonBreach   06/05/2026 14:51:30  3.0589
TS_AnsonBreach   06/05/2026 14:51:40  3.0191
TS_AnsonBreach   06/05/2026 14:51:50  2.9801
TS_AnsonBreach   06/05/2026 14:52:00  2.9417
TS_AnsonBreach   06/05/2026 14:52:10  2.9039
TS_AnsonBreach   06/05/2026 14:52:20  2.8668
TS_AnsonBreach   06/05/2026 14:52:30  2.8304
TS_AnsonBreach   06/05/2026 14:52:40  2.7945
TS_AnsonBreach   06/05/2026 14:52:50  2.7593
TS_AnsonBreach   06/05/2026 14:53:00  2.7246
TS_AnsonBreach   06/05/2026 14:53:10  2.6905
TS_AnsonBreach   06/05/2026 14:53:20  2.6570
TS_AnsonBreach   06/05/2026 14:53:30  2.6240
TS_AnsonBreach   06/05/2026 14:53:40  2.5916
TS_AnsonBreach   06/05/2026 14:53:50  2.5597
TS_AnsonBreach   06/05/2026 14:54:00  2.5284
TS_AnsonBreach   06/05/2026 14:54:10  2.4975
TS_AnsonBreach   06/05/2026 14:54:20  2.4672
TS_AnsonBreach   06/05/2026 14:54:30  2.4373
TS_AnsonBreach   06/05/2026 14:54:40  2.4079
TS_AnsonBreach   06/05/2026 14:54:50  2.3790
TS_AnsonBreach   06/05/2026 14:55:00  2.3506
TS_AnsonBreach   06/05/2026 14:55:10  2.3226
TS_AnsonBreach   06/05/2026 14:55:20  2.2950
TS_AnsonBreach   06/05/2026 14:55:30  2.2679
TS_AnsonBreach   06/05/2026 14:55:40  2.2412
TS_AnsonBreach   06/05/2026 14:55:50  2.2149
TS_AnsonBreach   06/05/2026 14:56:00  2.1891
TS_AnsonBreach   06/05/2026 14:56:10  2.1636
TS_AnsonBreach   06/05/2026 14:56:20  2.1385
TS_AnsonBreach   06/05/2026 14:56:30  2.1138
TS_AnsonBreach   06/05/2026 14:56:40  2.0895
TS_AnsonBreach   06/05/2026 14:56:50  2.0656
TS_AnsonBreach   06/05/2026 14:57:00  2.0420
TS_AnsonBreach   06/05/2026 14:57:10  2.0188
TS_AnsonBreach   06/05/2026 14:57:20  1.9960
TS_AnsonBreach   06/05/2026 14:57:30  1.9734
TS_AnsonBreach   06/05/2026 14:57:40  1.9513
TS_AnsonBreach   06/05/2026 14:57:50  1.9294
TS_AnsonBreach   06/05/2026 14:58:00  1.9079
TS_AnsonBreach   06/05/2026 14:58:10  1.8867
TS_AnsonBreach   06/05/2026 14:58:20  1.8658
TS_AnsonBreach   06/05/2026 14:58:30  1.8452
TS_AnsonBreach   06/05/2026 14:58:40  1.8249
TS_AnsonBreach   06/05/2026 14:58:50  1.8050
TS_AnsonBreach   06/05/2026 14:59:00  1.7853
TS_AnsonBreach   06/05/2026 14:59:10  1.7658
TS_AnsonBreach   06/05/2026 14:59:20  1.7467
TS_AnsonBreach   06/05/2026 14:59:30  1.7279
TS_AnsonBreach   06/05/2026 14:59:40  1.7093
TS_AnsonBreach   06/05/2026 14:59:50  1.6910
TS_AnsonBreach   06/05/2026 15:00:00  1.6729
TS_AnsonBreach   06/05/2026 15:00:10  1.6551
TS_AnsonBreach   06/05/2026 15:00:20  1.6376
TS_AnsonBreach   06/05/2026 15:00:30  1.6203
TS_AnsonBreach   06/05/2026 15:00:40  1.6032
TS_AnsonBreach   06/05/2026 15:00:50  1.5864
TS_AnsonBreach   06/05/2026 15:01:00  1.5698
TS_AnsonBreach   06/05/2026 15:01:10  1.5535
TS_AnsonBreach   06/05/2026 15:01:20  1.5373
TS_AnsonBreach   06/05/2026 15:01:30  1.5214
TS_AnsonBreach   06/05/2026 15:01:40  1.5057
TS_AnsonBreach   06/05/2026 15:01:50  1.4903
TS_AnsonBreach   06/05/2026 15:02:00  1.4750
TS_AnsonBreach   06/05/2026 15:02:10  1.4600
TS_AnsonBreach   06/05/2026 15:02:20  1.4451
TS_AnsonBreach   06/05/2026 15:02:30  1.4305
TS_AnsonBreach   06/05/2026 15:02:40  1.4160
TS_AnsonBreach   06/05/2026 15:02:50  1.4018
TS_AnsonBreach   06/05/2026 15:03:00  1.3877
TS_AnsonBreach   06/05/2026 15:03:10  1.3738
TS_AnsonBreach   06/05/2026 15:03:20  1.3601
TS_AnsonBreach   06/05/2026 15:03:30  1.3466
TS_AnsonBreach   06/05/2026 15:03:40  1.3333
TS_AnsonBreach   06/05/2026 15:03:50  1.3201
TS_AnsonBreach   06/05/2026 15:04:00  1.3072
TS_AnsonBreach   06/05/2026 15:04:10  1.2943
TS_AnsonBreach   06/05/2026 15:04:20  1.2817
TS_AnsonBreach   06/05/2026 15:04:30  1.2692
TS_AnsonBreach   06/05/2026 15:04:40  1.2569
TS_AnsonBreach   06/05/2026 15:04:50  1.2447
TS_AnsonBreach   06/05/2026 15:05:00  1.2327
TS_AnsonBreach   06/05/2026 15:05:10  1.2209
TS_AnsonBreach   06/05/2026 15:05:20  1.2092
TS_AnsonBreach   06/05/2026 15:05:30  1.1976
TS_AnsonBreach   06/05/2026 15:05:40  1.1862
TS_AnsonBreach   06/05/2026 15:05:50  1.1750
TS_AnsonBreach   06/05/2026 15:06:00  1.1638
TS_AnsonBreach   06/05/2026 15:06:10  1.1529
TS_AnsonBreach   06/05/2026 15:06:20  1.1420
TS_AnsonBreach   06/05/2026 15:06:30  1.1313
TS_AnsonBreach   06/05/2026 15:06:40  1.1207
TS_AnsonBreach   06/05/2026 15:06:50  1.1103
TS_AnsonBreach   06/05/2026 15:07:00  1.1000
TS_AnsonBreach   06/05/2026 15:07:10  1.0898
TS_AnsonBreach   06/05/2026 15:07:20  1.0798
TS_AnsonBreach   06/05/2026 15:07:30  1.0698
TS_AnsonBreach   06/05/2026 15:07:40  1.0600
TS_AnsonBreach   06/05/2026 15:07:50  1.0503
TS_AnsonBreach   06/05/2026 15:08:00  1.0407
TS_AnsonBreach   06/05/2026 15:08:10  1.0313
TS_AnsonBreach   06/05/2026 15:08:20  1.0219
TS_AnsonBreach   06/05/2026 15:08:30  1.0127
TS_AnsonBreach   06/05/2026 15:08:40  1.0036
TS_AnsonBreach   06/05/2026 15:08:50  0.9946
TS_AnsonBreach   06/05/2026 15:09:00  0.9857
TS_AnsonBreach   06/05/2026 15:09:10  0.9769
TS_AnsonBreach   06/05/2026 15:09:20  0.9682
TS_AnsonBreach   06/05/2026 15:09:30  0.9596
TS_AnsonBreach   06/05/2026 15:09:40  0.9511
TS_AnsonBreach   06/05/2026 15:09:50  0.9427
TS_AnsonBreach   06/05/2026 15:10:00  0.9344
TS_AnsonBreach   06/05/2026 15:10:10  0.9262
TS_AnsonBreach   06/05/2026 15:10:20  0.9181
TS_AnsonBreach   06/05/2026 15:10:30  0.9101
TS_AnsonBreach   06/05/2026 15:10:40  0.9022
TS_AnsonBreach   06/05/2026 15:10:50  0.8944
TS_AnsonBreach   06/05/2026 15:11:00  0.8867
TS_AnsonBreach   06/05/2026 15:11:10  0.8790
TS_AnsonBreach   06/05/2026 15:11:20  0.8715
TS_AnsonBreach   06/05/2026 15:11:30  0.8640
TS_AnsonBreach   06/05/2026 15:11:40  0.8566
TS_AnsonBreach   06/05/2026 15:11:50  0.8493
TS_AnsonBreach   06/05/2026 15:12:00  0.8421
TS_AnsonBreach   06/05/2026 15:12:10  0.8350
TS_AnsonBreach   06/05/2026 15:12:20  0.8279
TS_AnsonBreach   06/05/2026 15:12:30  0.8209
TS_AnsonBreach   06/05/2026 15:12:40  0.8140
TS_AnsonBreach   06/05/2026 15:12:50  0.8072
TS_AnsonBreach   06/05/2026 15:13:00  0.8005
TS_AnsonBreach   06/05/2026 15:13:10  0.7938
TS_AnsonBreach   06/05/2026 15:13:20  0.7872
TS_AnsonBreach   06/05/2026 15:13:30  0.7807
TS_AnsonBreach   06/05/2026 15:13:40  0.7743
TS_AnsonBreach   06/05/2026 15:13:50  0.7679
TS_AnsonBreach   06/05/2026 15:14:00  0.7616
TS_AnsonBreach   06/05/2026 15:14:10  0.7553
TS_AnsonBreach   06/05/2026 15:14:20  0.7492
TS_AnsonBreach   06/05/2026 15:14:30  0.7431
TS_AnsonBreach   06/05/2026 15:14:40  0.7370
TS_AnsonBreach   06/05/2026 15:14:50  0.7310
TS_AnsonBreach   06/05/2026 15:15:00  0.7251
TS_AnsonBreach   06/05/2026 15:15:10  0.7193
TS_AnsonBreach   06/05/2026 15:15:20  0.7135
TS_AnsonBreach   06/05/2026 15:15:30  0.7078
TS_AnsonBreach   06/05/2026 15:15:40  0.7021
TS_AnsonBreach   06/05/2026 15:15:50  0.6965
TS_AnsonBreach   06/05/2026 15:16:00  0.6910
TS_AnsonBreach   06/05/2026 15:16:10  0.6855
TS_AnsonBreach   06/05/2026 15:16:20  0.6801
TS_AnsonBreach   06/05/2026 15:16:30  0.6747
TS_AnsonBreach   06/05/2026 15:16:40  0.6694
TS_AnsonBreach   06/05/2026 15:16:50  0.6641
TS_AnsonBreach   06/05/2026 15:17:00  0.6589
TS_AnsonBreach   06/05/2026 15:17:10  0.6538
TS_AnsonBreach   06/05/2026 15:17:20  0.6487
TS_AnsonBreach   06/05/2026 15:17:30  0.6437
TS_AnsonBreach   06/05/2026 15:17:40  0.6387
TS_AnsonBreach   06/05/2026 15:17:50  0.6337
TS_AnsonBreach   06/05/2026 15:18:00  0.6289
TS_AnsonBreach   06/05/2026 15:18:10  0.6240
TS_AnsonBreach   06/05/2026 15:18:20  0.6192
TS_AnsonBreach   06/05/2026 15:18:30  0.6145
TS_AnsonBreach   06/05/2026 15:18:40  0.6098
TS_AnsonBreach   06/05/2026 15:18:50  0.6052
TS_AnsonBreach   06/05/2026 15:19:00  0.6006
TS_AnsonBreach   06/05/2026 15:19:10  0.5960
TS_AnsonBreach   06/05/2026 15:19:20  0.5915
TS_AnsonBreach   06/05/2026 15:19:30  0.5871
TS_AnsonBreach   06/05/2026 15:19:40  0.5827
TS_AnsonBreach   06/05/2026 15:19:50  0.5783
TS_AnsonBreach   06/05/2026 15:20:00  0.5740
TS_AnsonBreach   06/05/2026 15:20:10  0.5697
TS_AnsonBreach   06/05/2026 15:20:20  0.5655
TS_AnsonBreach   06/05/2026 15:20:30  0.5613
TS_AnsonBreach   06/05/2026 15:20:40  0.5571
TS_AnsonBreach   06/05/2026 15:20:50  0.5530
TS_AnsonBreach   06/05/2026 15:21:00  0.5489
TS_AnsonBreach   06/05/2026 15:21:10  0.5449
TS_AnsonBreach   06/05/2026 15:21:20  0.5409
TS_AnsonBreach   06/05/2026 15:21:30  0.5369
TS_AnsonBreach   06/05/2026 15:21:40  0.5330
TS_AnsonBreach   06/05/2026 15:21:50  0.5291
TS_AnsonBreach   06/05/2026 15:22:00  0.5253
TS_AnsonBreach   06/05/2026 15:22:10  0.5215
TS_AnsonBreach   06/05/2026 15:22:20  0.5177
TS_AnsonBreach   06/05/2026 15:22:30  0.5140
TS_AnsonBreach   06/05/2026 15:22:40  0.5103
TS_AnsonBreach   06/05/2026 15:22:50  0.5066
TS_AnsonBreach   06/05/2026 15:23:00  0.5030
TS_AnsonBreach   06/05/2026 15:23:10  0.4994
TS_AnsonBreach   06/05/2026 15:23:20  0.4959
TS_AnsonBreach   06/05/2026 15:23:30  0.4923
TS_AnsonBreach   06/05/2026 15:23:40  0.4889
TS_AnsonBreach   06/05/2026 15:23:50  0.4854
TS_AnsonBreach   06/05/2026 15:24:00  0.4820
TS_AnsonBreach   06/05/2026 15:24:10  0.4786
TS_AnsonBreach   06/05/2026 15:24:20  0.4752
TS_AnsonBreach   06/05/2026 15:24:30  0.4719
TS_AnsonBreach   06/05/2026 15:24:40  0.4686
TS_AnsonBreach   06/05/2026 15:24:50  0.4653
TS_AnsonBreach   06/05/2026 15:25:00  0.4621
TS_AnsonBreach   06/05/2026 15:25:10  0.4589
TS_AnsonBreach   06/05/2026 15:25:20  0.4557
TS_AnsonBreach   06/05/2026 15:25:30  0.4526
TS_AnsonBreach   06/05/2026 15:25:40  0.4494
TS_AnsonBreach   06/05/2026 15:25:50  0.4463
TS_AnsonBreach   06/05/2026 15:26:00  0.4433
TS_AnsonBreach   06/05/2026 15:26:10  0.4402
TS_AnsonBreach   06/05/2026 15:26:20  0.4372
TS_AnsonBreach   06/05/2026 15:26:30  0.4343
TS_AnsonBreach   06/05/2026 15:26:40  0.4313
TS_AnsonBreach   06/05/2026 15:26:50  0.4284
TS_AnsonBreach   06/05/2026 15:27:00  0.4255
TS_AnsonBreach   06/05/2026 15:27:10  0.4226
TS_AnsonBreach   06/05/2026 15:27:20  0.4198
TS_AnsonBreach   06/05/2026 15:27:30  0.4169
TS_AnsonBreach   06/05/2026 15:27:40  0.4141
TS_AnsonBreach   06/05/2026 15:27:50  0.4114
TS_AnsonBreach   06/05/2026 15:28:00  0.4086
TS_AnsonBreach   06/05/2026 15:28:10  0.4059
TS_AnsonBreach   06/05/2026 15:28:20  0.4032
TS_AnsonBreach   06/05/2026 15:28:30  0.4005
TS_AnsonBreach   06/05/2026 15:28:40  0.3979
TS_AnsonBreach   06/05/2026 15:28:50  0.3953
TS_AnsonBreach   06/05/2026 15:29:00  0.3927
TS_AnsonBreach   06/05/2026 15:29:10  0.3901
TS_AnsonBreach   06/05/2026 15:29:20  0.3875
TS_AnsonBreach   06/05/2026 15:29:30  0.3850
TS_AnsonBreach   06/05/2026 15:29:40  0.3825
TS_AnsonBreach   06/05/2026 15:29:50  0.3800
TS_AnsonBreach   06/05/2026 15:30:00  0.3775
TS_AnsonBreach   06/05/2026 15:30:10  0.3750
TS_AnsonBreach   06/05/2026 15:30:20  0.3726
TS_AnsonBreach   06/05/2026 15:30:30  0.3702
TS_AnsonBreach   06/05/2026 15:30:40  0.3678
TS_AnsonBreach   06/05/2026 15:30:50  0.3655
TS_AnsonBreach   06/05/2026 15:31:00  0.3631
TS_AnsonBreach   06/05/2026 15:31:10  0.3608
TS_AnsonBreach   06/05/2026 15:31:20  0.3585
TS_AnsonBreach   06/05/2026 15:31:30  0.3562
TS_AnsonBreach   06/05/2026 15:31:40  0.3539
TS_AnsonBreach   06/05/2026 15:31:50  0.3517
TS_AnsonBreach   06/05/2026 15:32:00  0.3494
TS_AnsonBreach   06/05/2026 15:32:10  0.3472
TS_AnsonBreach   06/05/2026 15:32:20  0.3450
TS_AnsonBreach   06/05/2026 15:32:30  0.3429
TS_AnsonBreach   06/05/2026 15:32:40  0.3407
TS_AnsonBreach   06/05/2026 15:32:50  0.3386
TS_AnsonBreach   06/05/2026 15:33:00  0.3365
TS_AnsonBreach   06/05/2026 15:33:10  0.3344
TS_AnsonBreach   06/05/2026 15:33:20  0.3323
TS_AnsonBreach   06/05/2026 15:33:30  0.3302
TS_AnsonBreach   06/05/2026 15:33:40  0.3282
TS_AnsonBreach   06/05/2026 15:33:50  0.3261
TS_AnsonBreach   06/05/2026 15:34:00  0.3241
TS_AnsonBreach   06/05/2026 15:34:10  0.3221
TS_AnsonBreach   06/05/2026 15:34:20  0.3201
TS_AnsonBreach   06/05/2026 15:34:30  0.3182
TS_AnsonBreach   06/05/2026 15:34:40  0.3162
TS_AnsonBreach   06/05/2026 15:34:50  0.3143
TS_AnsonBreach   06/05/2026 15:35:00  0.3124
TS_AnsonBreach   06/05/2026 15:35:10  0.3105
TS_AnsonBreach   06/05/2026 15:35:20  0.3086
TS_AnsonBreach   06/05/2026 15:35:30  0.3067
TS_AnsonBreach   06/05/2026 15:35:40  0.3048
TS_AnsonBreach   06/05/2026 15:35:50  0.3030
TS_AnsonBreach   06/05/2026 15:36:00  0.3012
TS_AnsonBreach   06/05/2026 15:36:10  0.2994
TS_AnsonBreach   06/05/2026 15:36:20  0.2976
TS_AnsonBreach   06/05/2026 15:36:30  0.2958
TS_AnsonBreach   06/05/2026 15:36:40  0.2940
TS_AnsonBreach   06/05/2026 15:36:50  0.2922
TS_AnsonBreach   06/05/2026 15:37:00  0.2905
TS_AnsonBreach   06/05/2026 15:37:10  0.2888
TS_AnsonBreach   06/05/2026 15:37:20  0.2871
TS_AnsonBreach   06/05/2026 15:37:30  0.2854
TS_AnsonBreach   06/05/2026 15:37:40  0.2837
TS_AnsonBreach   06/05/2026 15:37:50  0.2820
TS_AnsonBreach   06/05/2026 15:38:00  0.2803
TS_AnsonBreach   06/05/2026 15:38:10  0.2787
TS_AnsonBreach   06/05/2026 15:38:20  0.2771
TS_AnsonBreach   06/05/2026 15:38:30  0.2754
TS_AnsonBreach   06/05/2026 15:38:40  0.2738
TS_AnsonBreach   06/05/2026 15:38:50  0.2722
TS_AnsonBreach   06/05/2026 15:39:00  0.2706
TS_AnsonBreach   06/05/2026 15:39:10  0.2691
TS_AnsonBreach   06/05/2026 15:39:20  0.2675
TS_AnsonBreach   06/05/2026 15:39:30  0.2660
TS_AnsonBreach   06/05/2026 15:39:40  0.2644
TS_AnsonBreach   06/05/2026 15:39:50  0.2629
TS_AnsonBreach   06/05/2026 15:40:00  0.2614
TS_AnsonBreach   06/05/2026 15:40:10  0.2599
TS_AnsonBreach   06/05/2026 15:40:20  0.2584
TS_AnsonBreach   06/05/2026 15:40:30  0.2569
TS_AnsonBreach   06/05/2026 15:40:40  0.2555
TS_AnsonBreach   06/05/2026 15:40:50  0.2540
TS_AnsonBreach   06/05/2026 15:41:00  0.2526
TS_AnsonBreach   06/05/2026 15:41:10  0.2511
TS_AnsonBreach   06/05/2026 15:41:20  0.2497
TS_AnsonBreach   06/05/2026 15:41:30  0.2483
TS_AnsonBreach   06/05/2026 15:41:40  0.2469
TS_AnsonBreach   06/05/2026 15:41:50  0.2455
TS_AnsonBreach   06/05/2026 15:42:00  0.2441
TS_AnsonBreach   06/05/2026 15:42:10  0.2427
TS_AnsonBreach   06/05/2026 15:42:20  0.2414
TS_AnsonBreach   06/05/2026 15:42:30  0.2400
TS_AnsonBreach   06/05/2026 15:42:40  0.2387
TS_AnsonBreach   06/05/2026 15:42:50  0.2374
TS_AnsonBreach   06/05/2026 15:43:00  0.2360
TS_AnsonBreach   06/05/2026 15:43:10  0.2347
TS_AnsonBreach   06/05/2026 15:43:20  0.2334
TS_AnsonBreach   06/05/2026 15:43:30  0.2321
TS_AnsonBreach   06/05/2026 15:43:40  0.2309
TS_AnsonBreach   06/05/2026 15:43:50  0.2296
TS_AnsonBreach   06/05/2026 15:44:00  0.2283
TS_AnsonBreach   06/05/2026 15:44:10  0.2271
TS_AnsonBreach   06/05/2026 15:44:20  0.2258
TS_AnsonBreach   06/05/2026 15:44:30  0.2246
TS_AnsonBreach   06/05/2026 15:44:40  0.2234
TS_AnsonBreach   06/05/2026 15:44:50  0.2221
TS_AnsonBreach   06/05/2026 15:45:00  0.2209
TS_AnsonBreach   06/05/2026 15:45:10  0.2197
TS_AnsonBreach   06/05/2026 15:45:20  0.2185
TS_AnsonBreach   06/05/2026 15:45:30  0.2174
TS_AnsonBreach   06/05/2026 15:45:40  0.2162
TS_AnsonBreach   06/05/2026 15:45:50  0.2150
TS_AnsonBreach   06/05/2026 15:46:00  0.2139
TS_AnsonBreach   06/05/2026 15:46:10  0.2127
TS_AnsonBreach   06/05/2026 15:46:20  0.2116
TS_AnsonBreach   06/05/2026 15:46:30  0.2104
TS_AnsonBreach   06/05/2026 15:46:40  0.2093
TS_AnsonBreach   06/05/2026 15:46:50  0.2082
TS_AnsonBreach   06/05/2026 15:47:00  0.2071
TS_AnsonBreach   06/05/2026 15:47:10  0.2060
TS_AnsonBreach   06/05/2026 15:47:20  0.2049
TS_AnsonBreach   06/05/2026 15:47:30  0.2038
TS_AnsonBreach   06/05/2026 15:47:40  0.2027
TS_AnsonBreach   06/05/2026 15:47:50  0.2017
TS_AnsonBreach   06/05/2026 15:48:00  0.2006
TS_AnsonBreach   06/05/2026 15:48:10  0.1995
TS_AnsonBreach   06/05/2026 15:48:20  0.1985
TS_AnsonBreach   06/05/2026 15:48:30  0.1975
TS_AnsonBreach   06/05/2026 15:48:40  0.1964
TS_AnsonBreach   06/05/2026 15:48:50  0.1954
TS_AnsonBreach   06/05/2026 15:49:00  0.1944
TS_AnsonBreach   06/05/2026 15:49:10  0.1934
TS_AnsonBreach   06/05/2026 15:49:20  0.1924
TS_AnsonBreach   06/05/2026 15:49:30  0.1914
TS_AnsonBreach   06/05/2026 15:49:40  0.1904
TS_AnsonBreach   06/05/2026 15:49:50  0.1894
TS_AnsonBreach   06/05/2026 15:50:00  0.1884
TS_AnsonBreach   06/05/2026 15:50:10  0.1874
TS_AnsonBreach   06/05/2026 15:50:20  0.1865
TS_AnsonBreach   06/05/2026 15:50:30  0.1855
TS_AnsonBreach   06/05/2026 15:50:40  0.1846
TS_AnsonBreach   06/05/2026 15:50:50  0.1836
TS_AnsonBreach   06/05/2026 15:51:00  0.1827
TS_AnsonBreach   06/05/2026 15:51:10  0.1818
TS_AnsonBreach   06/05/2026 15:51:20  0.1808
TS_AnsonBreach   06/05/2026 15:51:30  0.1799
TS_AnsonBreach   06/05/2026 15:51:40  0.1790
TS_AnsonBreach   06/05/2026 15:51:50  0.1781
TS_AnsonBreach   06/05/2026 15:52:00  0.1772
TS_AnsonBreach   06/05/2026 15:52:10  0.1763
TS_AnsonBreach   06/05/2026 15:52:20  0.1754
TS_AnsonBreach   06/05/2026 15:52:30  0.1745
TS_AnsonBreach   06/05/2026 15:52:40  0.1737
TS_AnsonBreach   06/05/2026 15:52:50  0.1728
TS_AnsonBreach   06/05/2026 15:53:00  0.1719
TS_AnsonBreach   06/05/2026 15:53:10  0.1711
TS_AnsonBreach   06/05/2026 15:53:20  0.1702
TS_AnsonBreach   06/05/2026 15:53:30  0.1694
TS_AnsonBreach   06/05/2026 15:53:40  0.1685
TS_AnsonBreach   06/05/2026 15:53:50  0.1677
TS_AnsonBreach   06/05/2026 15:54:00  0.1669
TS_AnsonBreach   06/05/2026 15:54:10  0.1660
TS_AnsonBreach   06/05/2026 15:54:20  0.1652
TS_AnsonBreach   06/05/2026 15:54:30  0.1644
TS_AnsonBreach   06/05/2026 15:54:40  0.1636
TS_AnsonBreach   06/05/2026 15:54:50  0.1628
TS_AnsonBreach   06/05/2026 15:55:00  0.1620
TS_AnsonBreach   06/05/2026 15:55:10  0.1612
TS_AnsonBreach   06/05/2026 15:55:20  0.1604
TS_AnsonBreach   06/05/2026 15:55:30  0.1596
TS_AnsonBreach   06/05/2026 15:55:40  0.1588
TS_AnsonBreach   06/05/2026 15:55:50  0.1581
TS_AnsonBreach   06/05/2026 15:56:00  0.1573
TS_AnsonBreach   06/05/2026 15:56:10  0.1565
TS_AnsonBreach   06/05/2026 15:56:20  0.1558
TS_AnsonBreach   06/05/2026 15:56:30  0.1550
TS_AnsonBreach   06/05/2026 15:56:40  0.1543
TS_AnsonBreach   06/05/2026 15:56:50  0.1535
TS_AnsonBreach   06/05/2026 15:57:00  0.1528
TS_AnsonBreach   06/05/2026 15:57:10  0.1521
TS_AnsonBreach   06/05/2026 15:57:20  0.1513
TS_AnsonBreach   06/05/2026 15:57:30  0.1506
TS_AnsonBreach   06/05/2026 15:57:40  0.1499
TS_AnsonBreach   06/05/2026 15:57:50  0.1492
TS_AnsonBreach   06/05/2026 15:58:00  0.1485
TS_AnsonBreach   06/05/2026 15:58:10  0.1478
TS_AnsonBreach   06/05/2026 15:58:20  0.1470
TS_AnsonBreach   06/05/2026 15:58:30  0.1464
TS_AnsonBreach   06/05/2026 15:58:40  0.1457
TS_AnsonBreach   06/05/2026 15:58:50  0.1450
TS_AnsonBreach   06/05/2026 15:59:00  0.1443
TS_AnsonBreach   06/05/2026 15:59:10  0.1436
TS_AnsonBreach   06/05/2026 15:59:20  0.1429
TS_AnsonBreach   06/05/2026 15:59:30  0.1423
TS_AnsonBreach   06/05/2026 15:59:40  0.1416
TS_AnsonBreach   06/05/2026 15:59:50  0.1409
TS_AnsonBreach   06/05/2026 16:00:00  0.1403

[INFLOWS]
;;Node           Constituent      TimeSeries       Type     Mfactor  Sfactor  Baseline Pattern
;;-------------- ---------------- ---------------- -------- -------- -------- -------- --------
JN_Toe           FLOW             TS_AnsonBreach   FLOW     1.0      1.0

[COORDINATES]
;;Node           X-Coord            Y-Coord
;;-------------- ------------------ ------------------
JN_Toe           0.000              0.000
JN_2             500.000            0.000
JN_3             1000.000           0.000
OUT_1            1500.000           0.000

[MAP]
DIMENSIONS -200.000 -200.000 1700.000 200.000
Units      Feet
