[TITLE]
Teton-scale dam-breach routing example -- generated by swmm-breach.
Froehlich (2008) piping breach routed level-pool, applied as INFLOWS at the
dam toe (JN_Toe) and conveyed down a trapezoidal channel to a free outfall.
Peak breach outflow ~119,580 m3/s. Units: CMS / meters.

[OPTIONS]
FLOW_UNITS           CMS
INFILTRATION         HORTON
FLOW_ROUTING         DYNWAVE
LINK_OFFSETS         DEPTH
MIN_SLOPE            0
ALLOW_PONDING        NO
SKIP_STEADY_STATE    NO

START_DATE           06/05/2026
START_TIME           14:00:00
REPORT_START_DATE    06/05/2026
REPORT_START_TIME    14:00:00
END_DATE             06/05/2026
END_TIME             20:00:00
SWEEP_START          01/01
SWEEP_END            12/31
DRY_DAYS             0
REPORT_STEP          00:01:00
WET_STEP             00:01:00
DRY_STEP             00:05:00
ROUTING_STEP         0:00:05
RULE_STEP            00:00:00

INERTIAL_DAMPING     PARTIAL
NORMAL_FLOW_LIMITED  BOTH
FORCE_MAIN_EQUATION  H-W
VARIABLE_STEP        0.75
LENGTHENING_STEP     0
MIN_SURFAREA         1.167
MAX_TRIALS           8
HEAD_TOLERANCE       0.0015
SYS_FLOW_TOL         5
LAT_FLOW_TOL         5

[EVAPORATION]
CONSTANT         0.0
DRY_ONLY         NO

[REPORT]
INPUT      NO
CONTROLS   NO
SUBCATCHMENTS ALL
NODES ALL
LINKS ALL

[JUNCTIONS]
;;Name           Elevation  MaxDepth   InitDepth  SurDepth   Aponded
;;-------------- ---------- ---------- ---------- ---------- ----------
JN_Toe           900.0      40.0       0.0        0.0        0.0
JN_2             898.0      40.0       0.0        0.0        0.0
JN_3             896.0      40.0       0.0        0.0        0.0

[OUTFALLS]
;;Name           Elevation  Type       Stage Data       Gated    Route To
;;-------------- ---------- ---------- ---------------- -------- ----------
OUT_1            894.0      FREE                        NO

[CONDUITS]
;;Name           From Node        To Node          Length     Roughness  InOffset   OutOffset  InitFlow   MaxFlow
;;-------------- ---------------- ---------------- ---------- ---------- ---------- ---------- ---------- ----------
C1               JN_Toe           JN_2             2000       0.035      0          0          0          0
C2               JN_2             JN_3             2000       0.035      0          0          0          0
C3               JN_3             OUT_1            2000       0.035      0          0          0          0

[XSECTIONS]
;;Link           Shape        Geom1      Geom2      Geom3      Geom4      Barrels
;;-------------- ------------ ---------- ---------- ---------- ---------- ----------
C1               TRAPEZOIDAL  40.0       300.0      3.0        3.0        1
C2               TRAPEZOIDAL  40.0       300.0      3.0        3.0        1
C3               TRAPEZOIDAL  40.0       300.0      3.0        3.0        1

[TIMESERIES]
;;Name           Date       Time       Value
;;-------------- ---------- ---------- ----------
TS_TetonBreach   06/05/2026 14:00:00  0.0000
TS_TetonBreach   06/05/2026 14:01:00  7.2921
TS_TetonBreach   06/05/2026 14:02:00  41.2395
TS_TetonBreach   06/05/2026 14:03:00  113.5764
TS_TetonBreach   06/05/2026 14:04:00  232.9208
TS_TetonBreach   06/05/2026 14:05:00  406.3080
TS_TetonBreach   06/05/2026 14:06:00  639.6687
TS_TetonBreach   06/05/2026 14:07:00  938.0413
TS_TetonBreach   06/05/2026 14:08:00  1305.6774
TS_TetonBreach   06/05/2026 14:09:00  1746.0962
TS_TetonBreach   06/05/2026 14:10:00  2262.1123
TS_TetonBreach   06/05/2026 14:11:00  2855.8499
TS_TetonBreach   06/05/2026 14:12:00  3528.7493
TS_TetonBreach   06/05/2026 14:13:00  4281.5721
TS_TetonBreach   06/05/2026 14:14:00  5114.4070
TS_TetonBreach   06/05/2026 14:15:00  6026.6779
TS_TetonBreach   06/05/2026 14:16:00  7017.1570
TS_TetonBreach   06/05/2026 14:17:00  8083.9826
TS_TetonBreach   06/05/2026 14:18:00  9224.6825
TS_TetonBreach   06/05/2026 14:19:00  10436.2040
TS_TetonBreach   06/05/2026 14:20:00  11714.9490
TS_TetonBreach   06/05/2026 14:21:00  13056.8158
TS_TetonBreach   06/05/2026 14:22:00  14457.2454
TS_TetonBreach   06/05/2026 14:23:00  15911.2729
TS_TetonBreach   06/05/2026 14:24:00  17413.5828
TS_TetonBreach   06/05/2026 14:25:00  18958.5672
TS_TetonBreach   06/05/2026 14:26:00  20540.3864
TS_TetonBreach   06/05/2026 14:27:00  22153.0305
TS_TetonBreach   06/05/2026 14:28:00  23790.3816
TS_TetonBreach   06/05/2026 14:29:00  25446.2742
TS_TetonBreach   06/05/2026 14:30:00  27114.5556
TS_TetonBreach   06/05/2026 14:31:00  28789.1418
TS_TetonBreach   06/05/2026 14:32:00  30801.8213
TS_TetonBreach   06/05/2026 14:33:00  33156.0056
TS_TetonBreach   06/05/2026 14:34:00  35579.1492
TS_TetonBreach   06/05/2026 14:35:00  38067.1283
TS_TetonBreach   06/05/2026 14:36:00  40615.6171
TS_TetonBreach   06/05/2026 14:37:00  43220.1109
TS_TetonBreach   06/05/2026 14:38:00  45875.9491
TS_TetonBreach   06/05/2026 14:39:00  48578.3399
TS_TetonBreach   06/05/2026 14:40:00  51322.3838
TS_TetonBreach   06/05/2026 14:41:00  54103.0990
TS_TetonBreach   06/05/2026 14:42:00  56915.4448
TS_TetonBreach   06/05/2026 14:43:00  59754.3465
TS_TetonBreach   06/05/2026 14:44:00  62614.7187
TS_TetonBreach   06/05/2026 14:45:00  65491.4883
TS_TetonBreach   06/05/2026 14:46:00  68379.6175
TS_TetonBreach   06/05/2026 14:47:00  71274.1243
TS_TetonBreach   06/05/2026 14:48:00  74170.1040
TS_TetonBreach   06/05/2026 14:49:00  77062.7476
TS_TetonBreach   06/05/2026 14:50:00  79947.3607
TS_TetonBreach   06/05/2026 14:51:00  82819.3795
TS_TetonBreach   06/05/2026 14:52:00  85674.3868
TS_TetonBreach   06/05/2026 14:53:00  88508.1256
TS_TetonBreach   06/05/2026 14:54:00  91316.5116
TS_TetonBreach   06/05/2026 14:55:00  94095.6442
TS_TetonBreach   06/05/2026 14:56:00  96841.8159
TS_TetonBreach   06/05/2026 14:57:00  99551.5204
TS_TetonBreach   06/05/2026 14:58:00  102221.4587
TS_TetonBreach   06/05/2026 14:59:00  104848.5444
TS_TetonBreach   06/05/2026 15:00:00  107429.9074
TS_TetonBreach   06/05/2026 15:01:00  109962.8958
TS_TetonBreach   06/05/2026 15:02:00  112445.0772
TS_TetonBreach   06/05/2026 15:03:00  113946.2270
TS_TetonBreach   06/05/2026 15:04:00  115228.7666
TS_TetonBreach   06/05/2026 15:05:00  116449.4106
TS_TetonBreach   06/05/2026 15:06:00  117608.9932
TS_TetonBreach   06/05/2026 15:07:00  118708.4665
TS_TetonBreach   06/05/2026 15:08:00  118815.7890
TS_TetonBreach   06/05/2026 15:09:00  113715.7819
TS_TetonBreach   06/05/2026 15:10:00  108919.5282
TS_TetonBreach   06/05/2026 15:11:00  104403.7518
TS_TetonBreach   06/05/2026 15:12:00  100147.3585
TS_TetonBreach   06/05/2026 15:13:00  96131.1946
TS_TetonBreach   06/05/2026 15:14:00  92337.8359
TS_TetonBreach   06/05/2026 15:15:00  88751.4039
TS_TetonBreach   06/05/2026 15:16:00  85357.4036
TS_TetonBreach   06/05/2026 15:17:00  82142.5812
TS_TetonBreach   06/05/2026 15:18:00  79094.7990
TS_TetonBreach   06/05/2026 15:19:00  73635.5177
TS_TetonBreach   06/05/2026 15:20:00  68307.7366
TS_TetonBreach   06/05/2026 15:21:00  63502.9252
TS_TetonBreach   06/05/2026 15:22:00  59156.2914
TS_TetonBreach   06/05/2026 15:23:00  55212.7040
TS_TetonBreach   06/05/2026 15:24:00  51625.0166
TS_TetonBreach   06/05/2026 15:25:00  48352.7215
TS_TetonBreach   06/05/2026 15:26:00  45360.8612
TS_TetonBreach   06/05/2026 15:27:00  42619.1426
TS_TetonBreach   06/05/2026 15:28:00  40101.2120
TS_TetonBreach   06/05/2026 15:29:00  37784.0582
TS_TetonBreach   06/05/2026 15:30:00  35647.5183
TS_TetonBreach   06/05/2026 15:31:00  33673.8668
TS_TetonBreach   06/05/2026 15:32:00  31847.4721
TS_TetonBreach   06/05/2026 15:33:00  30154.5082
TS_TetonBreach   06/05/2026 15:34:00  28582.7113
TS_TetonBreach   06/05/2026 15:35:00  27121.1742
TS_TetonBreach   06/05/2026 15:36:00  23212.6232
TS_TetonBreach   06/05/2026 15:37:00  19161.6334
TS_TetonBreach   06/05/2026 15:38:00  16019.1047
TS_TetonBreach   06/05/2026 15:39:00  13539.9957
TS_TetonBreach   06/05/2026 15:40:00  11555.5141
TS_TetonBreach   06/05/2026 15:41:00  9946.5162
TS_TetonBreach   06/05/2026 15:42:00  8627.0986
TS_TetonBreach   06/05/2026 15:43:00  7534.1581
TS_TetonBreach   06/05/2026 15:44:00  6620.5679
TS_TetonBreach   06/05/2026 15:45:00  5850.6092
TS_TetonBreach   06/05/2026 15:46:00  5196.8488
TS_TetonBreach   06/05/2026 15:47:00  4637.9627
TS_TetonBreach   06/05/2026 15:48:00  4157.1939
TS_TetonBreach   06/05/2026 15:49:00  3741.2432
TS_TetonBreach   06/05/2026 15:50:00  3379.4580
TS_TetonBreach   06/05/2026 15:51:00  3063.2346
TS_TetonBreach   06/05/2026 15:52:00  2785.5691
TS_TetonBreach   06/05/2026 15:53:00  2540.7193
TS_TetonBreach   06/05/2026 15:54:00  2323.9456
TS_TetonBreach   06/05/2026 15:55:00  2131.3114
TS_TetonBreach   06/05/2026 15:56:00  1959.5280
TS_TetonBreach   06/05/2026 15:57:00  1805.8330
TS_TetonBreach   06/05/2026 15:58:00  1667.8939
TS_TetonBreach   06/05/2026 15:59:00  1543.7319
TS_TetonBreach   06/05/2026 16:00:00  1431.6603
TS_TetonBreach   06/05/2026 16:01:00  1330.2356
TS_TetonBreach   06/05/2026 16:02:00  1238.2170
TS_TetonBreach   06/05/2026 16:03:00  1154.5342
TS_TetonBreach   06/05/2026 16:04:00  1078.2600
TS_TetonBreach   06/05/2026 16:05:00  1008.5892
TS_TetonBreach   06/05/2026 16:06:00  944.8194
TS_TetonBreach   06/05/2026 16:07:00  886.3364
TS_TetonBreach   06/05/2026 16:08:00  832.6015
TS_TetonBreach   06/05/2026 16:09:00  783.1408
TS_TetonBreach   06/05/2026 16:10:00  737.5361
TS_TetonBreach   06/05/2026 16:11:00  695.4175
TS_TetonBreach   06/05/2026 16:12:00  656.4572
TS_TetonBreach   06/05/2026 16:13:00  620.3636
TS_TetonBreach   06/05/2026 16:14:00  586.8770
TS_TetonBreach   06/05/2026 16:15:00  555.7656
TS_TetonBreach   06/05/2026 16:16:00  526.8218
TS_TetonBreach   06/05/2026 16:17:00  499.8595
TS_TetonBreach   06/05/2026 16:18:00  474.7116
TS_TetonBreach   06/05/2026 16:19:00  451.2276
TS_TetonBreach   06/05/2026 16:20:00  429.2718
TS_TetonBreach   06/05/2026 16:21:00  408.7214
TS_TetonBreach   06/05/2026 16:22:00  389.4657
TS_TetonBreach   06/05/2026 16:23:00  371.4039
TS_TetonBreach   06/05/2026 16:24:00  354.4448
TS_TetonBreach   06/05/2026 16:25:00  338.5052
TS_TetonBreach   06/05/2026 16:26:00  323.5095
TS_TetonBreach   06/05/2026 16:27:00  309.3887
TS_TetonBreach   06/05/2026 16:28:00  296.0799
TS_TetonBreach   06/05/2026 16:29:00  283.5252
TS_TetonBreach   06/05/2026 16:30:00  271.6720
TS_TetonBreach   06/05/2026 16:31:00  260.4719
TS_TetonBreach   06/05/2026 16:32:00  249.8804
TS_TetonBreach   06/05/2026 16:33:00  239.8565
TS_TetonBreach   06/05/2026 16:34:00  230.3629
TS_TetonBreach   06/05/2026 16:35:00  221.3647
TS_TetonBreach   06/05/2026 16:36:00  212.8300
TS_TetonBreach   06/05/2026 16:37:00  204.7293
TS_TetonBreach   06/05/2026 16:38:00  197.0353
TS_TetonBreach   06/05/2026 16:39:00  189.7227
TS_TetonBreach   06/05/2026 16:40:00  182.7683
TS_TetonBreach   06/05/2026 16:41:00  176.1502
TS_TetonBreach   06/05/2026 16:42:00  169.8484
TS_TetonBreach   06/05/2026 16:43:00  163.8441
TS_TetonBreach   06/05/2026 16:44:00  158.1200
TS_TetonBreach   06/05/2026 16:45:00  152.6600
TS_TetonBreach   06/05/2026 16:46:00  147.4488
TS_TetonBreach   06/05/2026 16:47:00  142.4725
TS_TetonBreach   06/05/2026 16:48:00  137.7180
TS_TetonBreach   06/05/2026 16:49:00  133.1731
TS_TetonBreach   06/05/2026 16:50:00  128.8262
TS_TetonBreach   06/05/2026 16:51:00  124.6668
TS_TetonBreach   06/05/2026 16:52:00  120.6848
TS_TetonBreach   06/05/2026 16:53:00  116.8708
TS_TetonBreach   06/05/2026 16:54:00  113.2161
TS_TetonBreach   06/05/2026 16:55:00  109.7124
TS_TetonBreach   06/05/2026 16:56:00  106.3520
TS_TetonBreach   06/05/2026 16:57:00  103.1276
TS_TetonBreach   06/05/2026 16:58:00  100.0325
TS_TetonBreach   06/05/2026 16:59:00  97.0601
TS_TetonBreach   06/05/2026 17:00:00  94.2045
TS_TetonBreach   06/05/2026 17:01:00  91.4599
TS_TetonBreach   06/05/2026 17:02:00  88.8211
TS_TetonBreach   06/05/2026 17:03:00  86.2829
TS_TetonBreach   06/05/2026 17:04:00  83.8407
TS_TetonBreach   06/05/2026 17:05:00  81.4899
TS_TetonBreach   06/05/2026 17:06:00  79.2262
TS_TetonBreach   06/05/2026 17:07:00  77.0457
TS_TetonBreach   06/05/2026 17:08:00  74.9446
TS_TetonBreach   06/05/2026 17:09:00  72.9193
TS_TetonBreach   06/05/2026 17:10:00  70.9664
TS_TetonBreach   06/05/2026 17:11:00  69.0827
TS_TetonBreach   06/05/2026 17:12:00  67.2651
TS_TetonBreach   06/05/2026 17:13:00  65.5108
TS_TetonBreach   06/05/2026 17:14:00  63.8171
TS_TetonBreach   06/05/2026 17:15:00  62.1813
TS_TetonBreach   06/05/2026 17:16:00  60.6010
TS_TetonBreach   06/05/2026 17:17:00  59.0739
TS_TetonBreach   06/05/2026 17:18:00  57.5976
TS_TetonBreach   06/05/2026 17:19:00  56.1703
TS_TetonBreach   06/05/2026 17:20:00  54.7897
TS_TetonBreach   06/05/2026 17:21:00  53.4540
TS_TetonBreach   06/05/2026 17:22:00  52.1615
TS_TetonBreach   06/05/2026 17:23:00  50.9103
TS_TetonBreach   06/05/2026 17:24:00  49.6989
TS_TetonBreach   06/05/2026 17:25:00  48.5257
TS_TetonBreach   06/05/2026 17:26:00  47.3891
TS_TetonBreach   06/05/2026 17:27:00  46.2877
TS_TetonBreach   06/05/2026 17:28:00  45.2203
TS_TetonBreach   06/05/2026 17:29:00  44.1855
TS_TetonBreach   06/05/2026 17:30:00  43.1820
TS_TetonBreach   06/05/2026 17:31:00  42.2087
TS_TetonBreach   06/05/2026 17:32:00  41.2645
TS_TetonBreach   06/05/2026 17:33:00  40.3482
TS_TetonBreach   06/05/2026 17:34:00  39.4589
TS_TetonBreach   06/05/2026 17:35:00  38.5956
TS_TetonBreach   06/05/2026 17:36:00  37.7572
TS_TetonBreach   06/05/2026 17:37:00  36.9430
TS_TetonBreach   06/05/2026 17:38:00  36.1521
TS_TetonBreach   06/05/2026 17:39:00  35.3836
TS_TetonBreach   06/05/2026 17:40:00  34.6368
TS_TetonBreach   06/05/2026 17:41:00  33.9108
TS_TetonBreach   06/05/2026 17:42:00  33.2050
TS_TetonBreach   06/05/2026 17:43:00  32.5187
TS_TetonBreach   06/05/2026 17:44:00  31.8511
TS_TetonBreach   06/05/2026 17:45:00  31.2018
TS_TetonBreach   06/05/2026 17:46:00  30.5699
TS_TetonBreach   06/05/2026 17:47:00  29.9551
TS_TetonBreach   06/05/2026 17:48:00  29.3566
TS_TetonBreach   06/05/2026 17:49:00  28.7740
TS_TetonBreach   06/05/2026 17:50:00  28.2066
TS_TetonBreach   06/05/2026 17:51:00  27.6542
TS_TetonBreach   06/05/2026 17:52:00  27.1160
TS_TetonBreach   06/05/2026 17:53:00  26.5918
TS_TetonBreach   06/05/2026 17:54:00  26.0810
TS_TetonBreach   06/05/2026 17:55:00  25.5832
TS_TetonBreach   06/05/2026 17:56:00  25.0980
TS_TetonBreach   06/05/2026 17:57:00  24.6250
TS_TetonBreach   06/05/2026 17:58:00  24.1638
TS_TetonBreach   06/05/2026 17:59:00  23.7140
TS_TetonBreach   06/05/2026 18:00:00  23.2754
TS_TetonBreach   06/05/2026 18:01:00  22.8475
TS_TetonBreach   06/05/2026 18:02:00  22.4301
TS_TetonBreach   06/05/2026 18:03:00  22.0227
TS_TetonBreach   06/05/2026 18:04:00  21.6252
TS_TetonBreach   06/05/2026 18:05:00  21.2372
TS_TetonBreach   06/05/2026 18:06:00  20.8584
TS_TetonBreach   06/05/2026 18:07:00  20.4886
TS_TetonBreach   06/05/2026 18:08:00  20.1275
TS_TetonBreach   06/05/2026 18:09:00  19.7748
TS_TetonBreach   06/05/2026 18:10:00  19.4304
TS_TetonBreach   06/05/2026 18:11:00  19.0938
TS_TetonBreach   06/05/2026 18:12:00  18.7650
TS_TetonBreach   06/05/2026 18:13:00  18.4438
TS_TetonBreach   06/05/2026 18:14:00  18.1298
TS_TetonBreach   06/05/2026 18:15:00  17.8229
TS_TetonBreach   06/05/2026 18:16:00  17.5229
TS_TetonBreach   06/05/2026 18:17:00  17.2296
TS_TetonBreach   06/05/2026 18:18:00  16.9428
TS_TetonBreach   06/05/2026 18:19:00  16.6624
TS_TetonBreach   06/05/2026 18:20:00  16.3881
TS_TetonBreach   06/05/2026 18:21:00  16.1198
TS_TetonBreach   06/05/2026 18:22:00  15.8573
TS_TetonBreach   06/05/2026 18:23:00  15.6005
TS_TetonBreach   06/05/2026 18:24:00  15.3492
TS_TetonBreach   06/05/2026 18:25:00  15.1033
TS_TetonBreach   06/05/2026 18:26:00  14.8626
TS_TetonBreach   06/05/2026 18:27:00  14.6270
TS_TetonBreach   06/05/2026 18:28:00  14.3963
TS_TetonBreach   06/05/2026 18:29:00  14.1705
TS_TetonBreach   06/05/2026 18:30:00  13.9494
TS_TetonBreach   06/05/2026 18:31:00  13.7329
TS_TetonBreach   06/05/2026 18:32:00  13.5208
TS_TetonBreach   06/05/2026 18:33:00  13.3131
TS_TetonBreach   06/05/2026 18:34:00  13.1096
TS_TetonBreach   06/05/2026 18:35:00  12.9102
TS_TetonBreach   06/05/2026 18:36:00  12.7149
TS_TetonBreach   06/05/2026 18:37:00  12.5235
TS_TetonBreach   06/05/2026 18:38:00  12.3359
TS_TetonBreach   06/05/2026 18:39:00  12.1520
TS_TetonBreach   06/05/2026 18:40:00  11.9718
TS_TetonBreach   06/05/2026 18:41:00  11.7951
TS_TetonBreach   06/05/2026 18:42:00  11.6219
TS_TetonBreach   06/05/2026 18:43:00  11.4520
TS_TetonBreach   06/05/2026 18:44:00  11.2855
TS_TetonBreach   06/05/2026 18:45:00  11.1222
TS_TetonBreach   06/05/2026 18:46:00  10.9620
TS_TetonBreach   06/05/2026 18:47:00  10.8048
TS_TetonBreach   06/05/2026 18:48:00  10.6507
TS_TetonBreach   06/05/2026 18:49:00  10.4995
TS_TetonBreach   06/05/2026 18:50:00  10.3511
TS_TetonBreach   06/05/2026 18:51:00  10.2055
TS_TetonBreach   06/05/2026 18:52:00  10.0627
TS_TetonBreach   06/05/2026 18:53:00  9.9225
TS_TetonBreach   06/05/2026 18:54:00  9.7848
TS_TetonBreach   06/05/2026 18:55:00  9.6498
TS_TetonBreach   06/05/2026 18:56:00  9.5172
TS_TetonBreach   06/05/2026 18:57:00  9.3870
TS_TetonBreach   06/05/2026 18:58:00  9.2591
TS_TetonBreach   06/05/2026 18:59:00  9.1336
TS_TetonBreach   06/05/2026 19:00:00  9.0104
TS_TetonBreach   06/05/2026 19:01:00  8.8893
TS_TetonBreach   06/05/2026 19:02:00  8.7705
TS_TetonBreach   06/05/2026 19:03:00  8.6537
TS_TetonBreach   06/05/2026 19:04:00  8.5390
TS_TetonBreach   06/05/2026 19:05:00  8.4263
TS_TetonBreach   06/05/2026 19:06:00  8.3156
TS_TetonBreach   06/05/2026 19:07:00  8.2068
TS_TetonBreach   06/05/2026 19:08:00  8.0999
TS_TetonBreach   06/05/2026 19:09:00  7.9949
TS_TetonBreach   06/05/2026 19:10:00  7.8916
TS_TetonBreach   06/05/2026 19:11:00  7.7902
TS_TetonBreach   06/05/2026 19:12:00  7.6904
TS_TetonBreach   06/05/2026 19:13:00  7.5924
TS_TetonBreach   06/05/2026 19:14:00  7.4960
TS_TetonBreach   06/05/2026 19:15:00  7.4013
TS_TetonBreach   06/05/2026 19:16:00  7.3081
TS_TetonBreach   06/05/2026 19:17:00  7.2165
TS_TetonBreach   06/05/2026 19:18:00  7.1264
TS_TetonBreach   06/05/2026 19:19:00  7.0379
TS_TetonBreach   06/05/2026 19:20:00  6.9507
TS_TetonBreach   06/05/2026 19:21:00  6.8650
TS_TetonBreach   06/05/2026 19:22:00  6.7808
TS_TetonBreach   06/05/2026 19:23:00  6.6979
TS_TetonBreach   06/05/2026 19:24:00  6.6163
TS_TetonBreach   06/05/2026 19:25:00  6.5360
TS_TetonBreach   06/05/2026 19:26:00  6.4571
TS_TetonBreach   06/05/2026 19:27:00  6.3794
TS_TetonBreach   06/05/2026 19:28:00  6.3030
TS_TetonBreach   06/05/2026 19:29:00  6.2277
TS_TetonBreach   06/05/2026 19:30:00  6.1537
TS_TetonBreach   06/05/2026 19:31:00  6.0808
TS_TetonBreach   06/05/2026 19:32:00  6.0091
TS_TetonBreach   06/05/2026 19:33:00  5.9385
TS_TetonBreach   06/05/2026 19:34:00  5.8690
TS_TetonBreach   06/05/2026 19:35:00  5.8006
TS_TetonBreach   06/05/2026 19:36:00  5.7333
TS_TetonBreach   06/05/2026 19:37:00  5.6670
TS_TetonBreach   06/05/2026 19:38:00  5.6017
TS_TetonBreach   06/05/2026 19:39:00  5.5374
TS_TetonBreach   06/05/2026 19:40:00  5.4741
TS_TetonBreach   06/05/2026 19:41:00  5.4117
TS_TetonBreach   06/05/2026 19:42:00  5.3503
TS_TetonBreach   06/05/2026 19:43:00  5.2898
TS_TetonBreach   06/05/2026 19:44:00  5.2302
TS_TetonBreach   06/05/2026 19:45:00  5.1716
TS_TetonBreach   06/05/2026 19:46:00  5.1138
TS_TetonBreach   06/05/2026 19:47:00  5.0568
TS_TetonBreach   06/05/2026 19:48:00  5.0007
TS_TetonBreach   06/05/2026 19:49:00  4.9454
TS_TetonBreach   06/05/2026 19:50:00  4.8910
TS_TetonBreach   06/05/2026 19:51:00  4.8373
TS_TetonBreach   06/05/2026 19:52:00  4.7844
TS_TetonBreach   06/05/2026 19:53:00  4.7323
TS_TetonBreach   06/05/2026 19:54:00  4.6809
TS_TetonBreach   06/05/2026 19:55:00  4.6303
TS_TetonBreach   06/05/2026 19:56:00  4.5804
TS_TetonBreach   06/05/2026 19:57:00  4.5312
TS_TetonBreach   06/05/2026 19:58:00  4.4827
TS_TetonBreach   06/05/2026 19:59:00  4.4349
TS_TetonBreach   06/05/2026 20:00:00  4.3878

[INFLOWS]
;;Node           Constituent      TimeSeries       Type     Mfactor  Sfactor  Baseline Pattern
;;-------------- ---------------- ---------------- -------- -------- -------- -------- --------
JN_Toe           FLOW             TS_TetonBreach   FLOW     1.0      1.0

[COORDINATES]
;;Node           X-Coord            Y-Coord
;;-------------- ------------------ ------------------
JN_Toe           0.000              0.000
JN_2             2000.000           0.000
JN_3             4000.000           0.000
OUT_1            6000.000           0.000

[MAP]
DIMENSIONS -500.000 -500.000 6500.000 500.000
Units      Meters
